; benchmark generated from python API
(set-info :status unknown)
(declare-fun x_days () Int)
(assert
 (>= x_days (- 36584)))
(assert
 (<= x_days 36829))
(assert
 (>= x_days 8341))
(assert
 (let ((?x715 (+ x_days 730179)))
(let ((?x735 (mod ?x715 146097)))
(let ((?x3297 (div ?x735 36524)))
(let ((?x577 (ite (<= 4 ?x3297) 3 ?x3297)))
(let ((?x326 (- ?x735 (* ?x577 36524))))
(let ((?x301 (mod ?x326 1461)))
(let ((?x1189 (div ?x301 365)))
(let ((?x689 (ite (<= 4 ?x1189) 3 ?x1189)))
(let ((?x240 (+ (+ (* (div ?x715 146097) 400) (* ?x577 100)) (* (div ?x326 1461) 4))))
(let ((?x600 (+ (+ ?x240 ?x689) 1)))
(let (($x2764 (or (and (= (mod ?x600 4) 0) (and (distinct (mod ?x600 100) 0) true)) (= (mod ?x600 400) 0))))
(let ((?x491 (- ?x301 (* ?x689 365))))
(let ((?x575 (ite $x2764 31 31)))
(let (($x352 (>= ?x491 ?x575)))
(let ((?x645 (ite $x352 (+ (- ?x491 ?x575) 1) (+ (- ?x491 (ite $x2764 0 0)) 1))))
(let ((?x1281 (ite $x2764 60 59)))
(let (($x541 (>= ?x491 ?x1281)))
(let ((?x2350 (ite $x2764 91 90)))
(let (($x889 (>= ?x491 ?x2350)))
(let ((?x1898 (ite $x889 (+ (- ?x491 ?x2350) 1) (ite $x541 (+ (- ?x491 ?x1281) 1) ?x645))))
(let ((?x526 (ite $x2764 121 120)))
(let (($x729 (>= ?x491 ?x526)))
(let ((?x610 (ite $x2764 152 151)))
(let (($x1900 (>= ?x491 ?x610)))
(let ((?x632 (ite $x1900 (+ (- ?x491 ?x610) 1) (ite $x729 (+ (- ?x491 ?x526) 1) ?x1898))))
(let ((?x910 (ite $x2764 182 181)))
(let (($x3037 (>= ?x491 ?x910)))
(let ((?x880 (ite $x2764 213 212)))
(let (($x763 (>= ?x491 ?x880)))
(let ((?x718 (ite $x763 (+ (- ?x491 ?x880) 1) (ite $x3037 (+ (- ?x491 ?x910) 1) ?x632))))
(let ((?x589 (ite $x2764 244 243)))
(let (($x595 (>= ?x491 ?x589)))
(let ((?x226 (ite $x2764 274 273)))
(let (($x714 (>= ?x491 ?x226)))
(let ((?x324 (ite $x714 (+ (- ?x491 ?x226) 1) (ite $x595 (+ (- ?x491 ?x589) 1) ?x718))))
(let ((?x930 (ite $x2764 305 304)))
(let (($x744 (>= ?x491 ?x930)))
(let ((?x530 (ite $x2764 335 334)))
(let (($x591 (>= ?x491 ?x530)))
(let ((?x856 (ite $x591 (+ (- ?x491 ?x530) 1) (ite $x744 (+ (- ?x491 ?x930) 1) ?x324))))
(let ((?x780 (ite $x729 5 (ite $x889 4 (ite $x541 3 (ite $x352 2 1))))))
(let ((?x275 (ite $x595 9 (ite $x763 8 (ite $x3037 7 (ite $x1900 6 ?x780))))))
(let ((?x350 (+ (ite $x591 12 (ite $x744 11 (ite $x714 10 ?x275))) (+ (* 0 12) 1))))
(let ((?x773 (- ?x350 1)))
(let ((?x529 (+ (mod ?x773 12) 1)))
(let ((?x613 (ite (or (= ?x529 4) (= ?x529 6) (= ?x529 9) (= ?x529 11)) 30 31)))
(let (($x444 (and (= (mod (+ ?x600 (+ 0 (div ?x773 12))) 4) 0) (and (distinct (mod (+ ?x600 (+ 0 (div ?x773 12))) 100) 0) true))))
(let (($x441 (or $x444 (= (mod (+ ?x600 (+ 0 (div ?x773 12))) 400) 0))))
(let ((?x247 (ite (= ?x529 2) (ite $x441 29 28) ?x613)))
(let ((?x938 (ite (> 1 ?x856) 1 (ite (> ?x856 ?x247) ?x247 ?x856))))
(let ((?x685 (ite (> 1 ?x938) 1 (ite (> ?x938 ?x247) ?x247 ?x938))))
(let ((?x465 (ite (= 2 ?x529) (ite $x441 31 31) (ite (= 1 ?x529) (ite $x441 0 0) 0))))
(let ((?x832 (ite (= 4 ?x529) (ite $x441 91 90) (ite (= 3 ?x529) (ite $x441 60 59) ?x465))))
(let ((?x276 (ite (= 6 ?x529) (ite $x441 152 151) (ite (= 5 ?x529) (ite $x441 121 120) ?x832))))
(let ((?x3366 (ite (= 8 ?x529) (ite $x441 213 212) (ite (= 7 ?x529) (ite $x441 182 181) ?x276))))
(let ((?x456 (ite (= 10 ?x529) (ite $x441 274 273) (ite (= 9 ?x529) (ite $x441 244 243) ?x3366))))
(let ((?x364 (ite (= 12 ?x529) (ite $x441 335 334) (ite (= 11 ?x529) (ite $x441 305 304) ?x456))))
(let ((?x664 (+ (* 365 (- (+ ?x600 (+ 0 (div ?x773 12))) 1)) (div (- (+ ?x600 (+ 0 (div ?x773 12))) 1) 4))))
(let ((?x783 (+ (- ?x664 (div (- (+ ?x600 (+ 0 (div ?x773 12))) 1) 100)) (div (- (+ ?x600 (+ 0 (div ?x773 12))) 1) 400))))
(let ((?x2170 (+ (+ (- (+ (+ ?x783 ?x364) (- ?x685 1)) 730179) 0) 730179)))
(let ((?x1918 (mod ?x2170 146097)))
(let ((?x3364 (div ?x1918 36524)))
(let ((?x3599 (ite (<= 4 ?x3364) 3 ?x3364)))
(let ((?x269 (- ?x1918 (* ?x3599 36524))))
(let ((?x790 (mod ?x269 1461)))
(let ((?x2919 (div ?x790 365)))
(let ((?x1477 (ite (<= 4 ?x2919) 3 ?x2919)))
(let ((?x454 (+ (+ (* (div ?x2170 146097) 400) (* ?x3599 100)) (* (div ?x269 1461) 4))))
(let ((?x659 (+ (+ ?x454 ?x1477) 1)))
(let (($x3066 (or (and (= (mod ?x659 4) 0) (and (distinct (mod ?x659 100) 0) true)) (= (mod ?x659 400) 0))))
(let ((?x2939 (- ?x790 (* ?x1477 365))))
(let ((?x686 (ite $x3066 31 31)))
(let (($x630 (>= ?x2939 ?x686)))
(let ((?x914 (ite $x630 (+ (- ?x2939 ?x686) 1) (+ (- ?x2939 (ite $x3066 0 0)) 1))))
(let ((?x738 (ite $x3066 60 59)))
(let (($x841 (>= ?x2939 ?x738)))
(let ((?x747 (ite $x3066 91 90)))
(let (($x3670 (>= ?x2939 ?x747)))
(let ((?x584 (ite $x3670 (+ (- ?x2939 ?x747) 1) (ite $x841 (+ (- ?x2939 ?x738) 1) ?x914))))
(let ((?x481 (ite $x3066 121 120)))
(let (($x373 (>= ?x2939 ?x481)))
(let ((?x3669 (ite $x3066 152 151)))
(let (($x509 (>= ?x2939 ?x3669)))
(let ((?x500 (ite $x509 (+ (- ?x2939 ?x3669) 1) (ite $x373 (+ (- ?x2939 ?x481) 1) ?x584))))
(let ((?x723 (ite $x3066 182 181)))
(let (($x815 (>= ?x2939 ?x723)))
(let ((?x281 (ite $x3066 213 212)))
(let (($x564 (>= ?x2939 ?x281)))
(let ((?x848 (ite $x564 (+ (- ?x2939 ?x281) 1) (ite $x815 (+ (- ?x2939 ?x723) 1) ?x500))))
(let ((?x879 (ite $x3066 244 243)))
(let (($x303 (>= ?x2939 ?x879)))
(let ((?x920 (ite $x3066 274 273)))
(let (($x1452 (>= ?x2939 ?x920)))
(let ((?x3298 (ite $x1452 (+ (- ?x2939 ?x920) 1) (ite $x303 (+ (- ?x2939 ?x879) 1) ?x848))))
(let ((?x1429 (ite $x3066 305 304)))
(let (($x594 (>= ?x2939 ?x1429)))
(let ((?x1416 (ite $x3066 335 334)))
(let (($x628 (>= ?x2939 ?x1416)))
(let ((?x2380 (ite $x628 (+ (- ?x2939 ?x1416) 1) (ite $x594 (+ (- ?x2939 ?x1429) 1) ?x3298))))
(let (($x695 (= 0 0)))
(let (($x3667 (= (mod (ite $x695 (+ ?x600 (+ 0 (div ?x773 12))) ?x659) 400) 0)))
(let (($x431 (and (distinct (mod (ite $x695 (+ ?x600 (+ 0 (div ?x773 12))) ?x659) 100) 0) true)))
(let (($x517 (= (mod (ite $x695 (+ ?x600 (+ 0 (div ?x773 12))) ?x659) 4) 0)))
(let (($x244 (or (and $x517 $x431) $x3667)))
(let ((?x614 (ite $x373 5 (ite $x3670 4 (ite $x841 3 (ite $x630 2 1))))))
(let ((?x761 (ite $x303 9 (ite $x564 8 (ite $x815 7 (ite $x509 6 ?x614))))))
(let ((?x778 (ite $x695 ?x529 (ite $x628 12 (ite $x594 11 (ite $x1452 10 ?x761))))))
(let ((?x2589 (ite (= 2 ?x778) (ite $x244 31 31) (ite (= 1 ?x778) (ite $x244 0 0) 0))))
(let ((?x2817 (ite (= 4 ?x778) (ite $x244 91 90) (ite (= 3 ?x778) (ite $x244 60 59) ?x2589))))
(let ((?x1279 (ite (= 6 ?x778) (ite $x244 152 151) (ite (= 5 ?x778) (ite $x244 121 120) ?x2817))))
(let ((?x330 (ite (= 8 ?x778) (ite $x244 213 212) (ite (= 7 ?x778) (ite $x244 182 181) ?x1279))))
(let ((?x3160 (ite (= 10 ?x778) (ite $x244 274 273) (ite (= 9 ?x778) (ite $x244 244 243) ?x330))))
(let ((?x1059 (ite (= 12 ?x778) (ite $x244 335 334) (ite (= 11 ?x778) (ite $x244 305 304) ?x3160))))
(let ((?x798 (+ ?x600 (+ 0 (div ?x773 12)))))
(let ((?x615 (ite $x695 ?x798 ?x659)))
(let ((?x230 (- ?x615 1)))
(let ((?x3678 (+ (- (+ (* 365 ?x230) (div ?x230 4)) (div ?x230 100)) (div ?x230 400))))
(let (($x233 (<= (- (+ (+ ?x3678 ?x1059) (- (ite $x695 ?x685 ?x2380) 1)) 730179) (+ x_days 31))))
(not $x233))))))))))))))))))))))))))))))))))))))))))))))))))))))))))))))))))))))))))))))))))))))))))))))))))))))))))))))))))))))))
(check-sat)
